db/data/19529149499892483810863180229919751.z3.out
-------------------
2500.138722104
